% demand
num_movements = 35;
loading_factor = [1000, 1650, 1200, 1900, 850, 900, 1350, 1250, 900, 1650, 1050, 800, 1000, 850, 1100, 1150, 1900, 800, 1550, 1550, 900, 1350, 1400, 1150, 800, 1600, 2000, 1650, 1900, 1750, 1050, 1400, 1250, 1450, 1000];
pickup_time = [0, 0, 0, 0, 0, 0, 0, 0, 0, 3, 3, 3, 3, 5, 5, 5, 6, 6, 6, 6, 6, 7, 7, 7, 7, 7, 7, 8, 9, 9, 9, 9, 9, 10, 10];
delivery_time = [6, 6, 5, 1, 4, 6, 1, 2, 6, 6, 5, 4, 6, 6, 6, 7, 8, 8, 7, 7, 7, 10, 8, 8, 8, 8, 8, 11, 10, 10, 10, 10, 11, 11, 11];

% transporter definition
total_capacity = 11000;
num_decks = 4;
capacity = [3000, 3000, 1000, 4000];

% ways out of decks
num_ways_out = 2;
paths_out = array3d(decks, ways_out, decks, [
% ways out of deck d1
2, 4, 0, 0, 3, 4, 0, 0, 

% ways out of deck d2
4, 0, 0, 0, 0, 0, 0, 0,	

% ways out of deck d3
4, 0, 0, 0, 0, 0, 0, 0,	

% ways out of deck d4
0, 0, 0, 0,	0, 0, 0, 0,	

]);

